LAMMPS (22 Jul 2025 - Update 5)
OMP_NUM_THREADS environment is not set. Defaulting to 1 thread.
  using 1 OpenMP thread(s) per MPI task
# pour particles into cone-shaped funnel, settle them, let them run out bottom

variable	name string funnel_pour
# LAMMPS examples/granregion/in.granregion.funnel with summed, unnormalized energies in the
# thermo output and the dumps removed; the funnel cone is the region 'conereg'. Run with
#   lmp -in in.granregion.funnel

thermo_modify	flush yes
units 		si
variable	PI equal 3.141592653589
variable	seed equal 14314

###############################################
# Geometry-related parameters
###############################################

variable	xlo equal 10
variable	xhi equal 40
variable	ylo equal 10
variable	yhi equal 40
variable	zlo equal -20
variable	zhi equal 50

variable	xc equal 25
variable	yc equal 25

variable	zconehi equal 50
variable	zconelo equal 10
variable	zcyllo equal 0
variable	radconelo equal 2
variable	radconehi equal 20

################################################
# Particle sizes
################################################

variable	rlo equal 0.25
variable	rhi equal 0.5
variable	dlo equal 2.0*${rlo}
variable	dlo equal 2.0*0.25
variable	dhi equal 2.0*${rhi}
variable	dhi equal 2.0*0.5

variable 	skin equal ${rhi}
variable 	skin equal 0.5

###############################################
# Granular contact parameters
###############################################

variable	coeffRes equal 0.1
variable	coeffFric equal 0.5

variable	density equal 1.0
variable	EYoung equal 10^5
variable 	Poisson equal 2.0/7.0
variable	GShear equal ${EYoung}/(2*(1+${Poisson}))
variable	GShear equal 100000/(2*(1+${Poisson}))
variable	GShear equal 100000/(2*(1+0.285714285714286))

variable	gravity equal 1.0

variable	reff equal 0.5*(${rhi}+${rlo})
variable	reff equal 0.5*(0.5+${rlo})
variable	reff equal 0.5*(0.5+0.25)
variable	meff equal ${density}*4.0/3.0*${PI}*${reff}^3
variable	meff equal 1*4.0/3.0*${PI}*${reff}^3
variable	meff equal 1*4.0/3.0*3.141592653589*${reff}^3
variable	meff equal 1*4.0/3.0*3.141592653589*0.375^3
variable	min_mass equal ${density}*4.0/3.0*${PI}*${rlo}*${rlo}*${rlo}
variable	min_mass equal 1*4.0/3.0*${PI}*${rlo}*${rlo}*${rlo}
variable	min_mass equal 1*4.0/3.0*3.141592653589*${rlo}*${rlo}*${rlo}
variable	min_mass equal 1*4.0/3.0*3.141592653589*0.25*${rlo}*${rlo}
variable	min_mass equal 1*4.0/3.0*3.141592653589*0.25*0.25*${rlo}
variable	min_mass equal 1*4.0/3.0*3.141592653589*0.25*0.25*0.25
variable	max_mass equal ${density}*4.0/3.0*${PI}*${rhi}*${rhi}*${rhi}
variable	max_mass equal 1*4.0/3.0*${PI}*${rhi}*${rhi}*${rhi}
variable	max_mass equal 1*4.0/3.0*3.141592653589*${rhi}*${rhi}*${rhi}
variable	max_mass equal 1*4.0/3.0*3.141592653589*0.5*${rhi}*${rhi}
variable	max_mass equal 1*4.0/3.0*3.141592653589*0.5*0.5*${rhi}
variable	max_mass equal 1*4.0/3.0*3.141592653589*0.5*0.5*0.5

## Typical way to set kn, kt, etc.:
variable        kn equal 4.0*${GShear}/(3*(1-${Poisson}))
variable        kn equal 4.0*38888.8888888889/(3*(1-${Poisson}))
variable        kn equal 4.0*38888.8888888889/(3*(1-0.285714285714286))
variable        kt equal 4.0*${GShear}/(2-${Poisson})
variable        kt equal 4.0*38888.8888888889/(2-${Poisson})
variable        kt equal 4.0*38888.8888888889/(2-0.285714285714286)

variable	a equal (-2.0*log(${coeffRes})/${PI})^2
variable	a equal (-2.0*log(0.1)/${PI})^2
variable	a equal (-2.0*log(0.1)/3.141592653589)^2
variable        gamma_n equal sqrt($a*2*${kn}/${min_mass}/(1+0.25*$a))
variable        gamma_n equal sqrt(0.405284734569556*2*${kn}/${min_mass}/(1+0.25*$a))
variable        gamma_n equal sqrt(0.405284734569556*2*72592.5925925926/${min_mass}/(1+0.25*$a))
variable        gamma_n equal sqrt(0.405284734569556*2*72592.5925925926/0.0654498469497708/(1+0.25*$a))
variable        gamma_n equal sqrt(0.405284734569556*2*72592.5925925926/0.0654498469497708/(1+0.25*0.405284734569556))
variable        gamma_t equal ${gamma_n}*0.5
variable        gamma_t equal 903.503751814138*0.5

variable	tcol equal ${PI}/sqrt(2*${kn}/${min_mass}-${gamma_n}/4.0)
variable	tcol equal 3.141592653589/sqrt(2*${kn}/${min_mass}-${gamma_n}/4.0)
variable	tcol equal 3.141592653589/sqrt(2*72592.5925925926/${min_mass}-${gamma_n}/4.0)
variable	tcol equal 3.141592653589/sqrt(2*72592.5925925926/0.0654498469497708-${gamma_n}/4.0)
variable	tcol equal 3.141592653589/sqrt(2*72592.5925925926/0.0654498469497708-903.503751814138/4.0)

variable	dt equal ${tcol}*0.05
variable	dt equal 0.00210943016014969*0.05
timestep	${dt}
timestep	0.000105471508007485

###############################################
variable	dumpfreq equal 1000
variable	logfreq equal 1000

newton 		off
atom_style	sphere

boundary	p p f

region		boxreg block ${xlo} ${xhi} ${ylo} ${yhi} ${zlo} ${zhi}
region		boxreg block 10 ${xhi} ${ylo} ${yhi} ${zlo} ${zhi}
region		boxreg block 10 40 ${ylo} ${yhi} ${zlo} ${zhi}
region		boxreg block 10 40 10 ${yhi} ${zlo} ${zhi}
region		boxreg block 10 40 10 40 ${zlo} ${zhi}
region		boxreg block 10 40 10 40 -20 ${zhi}
region		boxreg block 10 40 10 40 -20 50
create_box	1 boxreg
Created orthogonal box = (10 10 -20) to (40 40 50)
  1 by 1 by 1 MPI processor grid

pair_style	gran/hertz/history 		${kn} ${kt} ${gamma_n} ${gamma_t} ${coeffFric} 1
pair_style	gran/hertz/history 		72592.5925925926 ${kt} ${gamma_n} ${gamma_t} ${coeffFric} 1
pair_style	gran/hertz/history 		72592.5925925926 90740.7407407408 ${gamma_n} ${gamma_t} ${coeffFric} 1
pair_style	gran/hertz/history 		72592.5925925926 90740.7407407408 903.503751814138 ${gamma_t} ${coeffFric} 1
pair_style	gran/hertz/history 		72592.5925925926 90740.7407407408 903.503751814138 451.751875907069 ${coeffFric} 1
pair_style	gran/hertz/history 		72592.5925925926 90740.7407407408 903.503751814138 451.751875907069 0.5 1
pair_coeff	* *

neighbor        ${skin} multi
neighbor        0.5 multi
thermo 		${logfreq}
thermo 		1000

comm_style	brick
comm_modify 	mode multi group all vel yes
balance		1.1 shift xyz 20 1.1
Balancing ...
Generated 0 of 0 mixed pair_coeff terms from geometric mixing rule
Neighbor list info ...
  update: every = 1 steps, delay = 0 steps, check = yes
  max neighbors/atom: 2000, page size: 100000
  master list distance cutoff = 0
  ghost atom cutoff = 0
  binsize = 30, bins = 1 1 3
  1 neighbor lists, perpetual/occasional/extra = 1 0 0
  (1) pair gran/hertz/history, perpetual
      attributes: half, newton off, size, history
      pair build: half/size/multi/atomonly/newtoff
      stencil: full/multi/3d
      bin: multi
WARNING: Communication cutoff is 0.0. No ghost atoms will be generated. Energies and forces may be wrong and atoms may get lost. (src/comm_brick.cpp:212)
fix		bal all balance 10000 1.1 shift xyz 20 1.01

####################### Options specific to pouring #########################

# insertion region for fix/pour

region	     	insreg cylinder z ${xc} ${yc} 10 30 50 side in units box
region	     	insreg cylinder z 25 ${yc} 10 30 50 side in units box
region	     	insreg cylinder z 25 25 10 30 50 side in units box

# define cone and cylinder regions - see lammps doc on region command
# note new open options

region	    	cylreg cylinder z ${xc} ${yc} ${radconelo} 		${zcyllo} ${zconelo} side in units box 		open 2 #Top is open
region	    	cylreg cylinder z 25 ${yc} ${radconelo} 		${zcyllo} ${zconelo} side in units box 		open 2 
region	    	cylreg cylinder z 25 25 ${radconelo} 		${zcyllo} ${zconelo} side in units box 		open 2 
region	    	cylreg cylinder z 25 25 2 		${zcyllo} ${zconelo} side in units box 		open 2 
region	    	cylreg cylinder z 25 25 2 		0 ${zconelo} side in units box 		open 2 
region	    	cylreg cylinder z 25 25 2 		0 10 side in units box 		open 2 

region		conereg cone z ${xc} ${yc} ${radconelo} ${radconehi} 		${zconelo} ${zconehi} side in units box 		open 1 open 2 #Bottom and top are open
region		conereg cone z 25 ${yc} ${radconelo} ${radconehi} 		${zconelo} ${zconehi} side in units box 		open 1 open 2 
region		conereg cone z 25 25 ${radconelo} ${radconehi} 		${zconelo} ${zconehi} side in units box 		open 1 open 2 
region		conereg cone z 25 25 2 ${radconehi} 		${zconelo} ${zconehi} side in units box 		open 1 open 2 
region		conereg cone z 25 25 2 20 		${zconelo} ${zconehi} side in units box 		open 1 open 2 
region		conereg cone z 25 25 2 20 		10 ${zconehi} side in units box 		open 1 open 2 
region		conereg cone z 25 25 2 20 		10 50 side in units box 		open 1 open 2 

region		hopreg union 2 conereg cylreg

fix		grav all gravity ${gravity} vector 0 0 -1
fix		grav all gravity 1 vector 0 0 -1
fix		1 all nve/sphere


fix		hopper3 all wall/gran/region hertz/history                 ${kn} ${kt} ${gamma_n} ${gamma_t} ${coeffFric} 1 region hopreg
fix		hopper3 all wall/gran/region hertz/history                 72592.5925925926 ${kt} ${gamma_n} ${gamma_t} ${coeffFric} 1 region hopreg
fix		hopper3 all wall/gran/region hertz/history                 72592.5925925926 90740.7407407408 ${gamma_n} ${gamma_t} ${coeffFric} 1 region hopreg
fix		hopper3 all wall/gran/region hertz/history                 72592.5925925926 90740.7407407408 903.503751814138 ${gamma_t} ${coeffFric} 1 region hopreg
fix		hopper3 all wall/gran/region hertz/history                 72592.5925925926 90740.7407407408 903.503751814138 451.751875907069 ${coeffFric} 1 region hopreg
fix		hopper3 all wall/gran/region hertz/history                 72592.5925925926 90740.7407407408 903.503751814138 451.751875907069 0.5 1 region hopreg

fix		ins all pour 2000 1 42424 region insreg 		diam range ${dlo} ${dhi} dens ${density} ${density}
fix		ins all pour 2000 1 42424 region insreg 		diam range 0.5 ${dhi} dens ${density} ${density}
fix		ins all pour 2000 1 42424 region insreg 		diam range 0.5 1 dens ${density} ${density}
fix		ins all pour 2000 1 42424 region insreg 		diam range 0.5 1 dens 1 ${density}
fix		ins all pour 2000 1 42424 region insreg 		diam range 0.5 1 dens 1 1

#		id type mass diameter x y z

#		axes yes 0.8 0.02 view 60 -30 zoom 3.0 #                box no 0.0 axes no 0.0 0.0

compute         kea all ke/atom
compute         ke all reduce sum c_kea
variable        zmin equal bound(all,zmin)
thermo_style	custom step atoms c_ke v_zmin
WARNING: New thermo_style command, previous thermo_modify settings will be lost (src/output.cpp:912)
thermo_modify	flush yes lost warn norm no

# Initial run to fill up the cone

run		20000

CITE-CITE-CITE-CITE-CITE-CITE-CITE-CITE-CITE-CITE-CITE-CITE-CITE

Your simulation uses code contributions which should be cited:

- neighbor multi command: doi:10.1016/j.cpc.2008.03.005, doi:10.1007/s40571-020-00361-2

@Article{Intveld08,
 author =  {in 't Veld, P. J. and S. J.~Plimpton and G. S. Grest},
 title =   {Accurate and Efficient Methods for Modeling Colloidal
            Mixtures in an Explicit Solvent using Molecular Dynamics},
 journal = {Comput.\ Phys.\ Commut.},
 year =    2008,
 volume =  179,
 pages =   {320--329}
}

@article{Shire2020,
 author = {Shire, Tom and Hanley, Kevin J. and Stratford, Kevin},
 title = {{DEM} Simulations of Polydisperse Media: Efficient Contact
          Detection Applied to Investigate the Quasi-Static Limit},
 journal = {Computational Particle Mechanics},
 year = {2020}
@article{Monti2022,
 author = {Monti, Joseph M. and Clemmer, Joel T. and Srivastava, 
           Ishan and Silbert, Leonardo E. and Grest, Gary S. 
           and Lechman, Jeremy B.},
 title = {Large-scale frictionless jamming with power-law particle 
          size distributions},
 journal = {Phys. Rev. E},
 volume = {106}
 issue = {3}
 year = {2022}
}

CITE-CITE-CITE-CITE-CITE-CITE-CITE-CITE-CITE-CITE-CITE-CITE-CITE

Generated 0 of 0 mixed pair_coeff terms from geometric mixing rule
Particle insertion: 3000 every 59965 steps, 2000 by step 1
Per MPI rank memory allocation (min/avg/max) = 6.648 | 6.648 | 6.648 Mbytes
   Step        Atoms         c_ke          v_zmin    
         0           0   0              1e+20        
      1000        2000   3481.4219      29.410743    
      2000        2000   3654.6964      28.72836     
      3000        2000   3826.9239      28.034852    
      4000        2000   4003.8327      27.33022     
      5000        2000   4172.0959      26.614464    
      6000        2000   4348.9145      25.887584    
      7000        2000   4515.2941      25.149579    
      8000        2000   4693.4944      24.400451    
      9000        2000   4859.8597      23.640197    
     10000        2000   5014.3765      22.86882     
     11000        2000   5181.0687      22.086319    
     12000        2000   5358.3254      21.292693    
     13000        2000   5510.8482      20.487943    
     14000        2000   5675.633       19.672069    
     15000        2000   5865.5577      18.84507     
     16000        2000   6018.8045      18.006947    
     17000        2000   6170.6161      17.1577      
     18000        2000   6305.3937      16.297329    
     19000        2000   6501.3561      15.425834    
     20000        2000   6652.2957      14.543214    
Loop time of 3.13872 on 1 procs for 20000 steps with 2000 atoms

99.8% CPU use with 1 MPI tasks x 1 OpenMP threads

MPI task timing breakdown:
Section |  min time  |  avg time  |  max time  |%varavg| %total
---------------------------------------------------------------
Pair    | 0.0988     | 0.0988     | 0.0988     |   0.0 |  3.15
Neigh   | 0.032946   | 0.032946   | 0.032946   |   0.0 |  1.05
Comm    | 0.003849   | 0.003849   | 0.003849   |   0.0 |  0.12
Output  | 0.00054546 | 0.00054546 | 0.00054546 |   0.0 |  0.02
Modify  | 2.9604     | 2.9604     | 2.9604     |   0.0 | 94.32
Other   |            | 0.04214    |            |       |  1.34

Nlocal:           2000 ave        2000 max        2000 min
Histogram: 1 0 0 0 0 0 0 0 0 0
Nghost:              0 ave           0 max           0 min
Histogram: 1 0 0 0 0 0 0 0 0 0
Neighs:           1607 ave        1607 max        1607 min
Histogram: 1 0 0 0 0 0 0 0 0 0

Total # of neighbors = 1607
Ave neighs/atom = 0.8035
Neighbor list builds = 71
Dangerous builds = 0
unfix 		ins
run		150000
Generated 0 of 0 mixed pair_coeff terms from geometric mixing rule
Per MPI rank memory allocation (min/avg/max) = 12.82 | 12.82 | 12.82 Mbytes
   Step        Atoms         c_ke          v_zmin    
     20000        2000   6652.2957      14.543214    
     21000        2000   6807.2201      13.702265    
     22000        2000   6973.9359      13.064357    
     23000        2000   7142.3648      12.15228     
     24000        2000   7276.9717      11.229079    
     25000        2000   7369.4191      10.294753    
     26000        2000   7497.6526      9.3493035    
     27000        2000   7638.946       8.3927296    
     28000        2000   7780.0339      7.4250314    
     29000        2000   7881.8177      6.446209     
     30000        2000   7967.2641      5.4562623    
     31000        2000   7994.9273      4.4551914    
     32000        2000   7937.0671      3.4429963    
     33000        2000   7774.0507      2.4196769    
     34000        2000   7591.1492      1.3852333    
     35000        2000   7357.5186      0.33966541   
     36000        2000   7147.207       0.37483027   
     37000        2000   6979.1928      0.35220122   
     38000        2000   6814.202       0.45241682   
     39000        2000   6659.792       0.57014007   
     40000        2000   6501.7946      0.34940453   
     41000        2000   6332.3902      0.31376746   
     42000        2000   6124.4082      0.27835502   
     43000        2000   5920.5366      0.27335751   
     44000        2000   5738.5032      0.29029427   
     45000        2000   5498.6328      0.28543071   
     46000        2000   5314.1294      0.27929179   
     47000        2000   5157.1908      0.28276309   
     48000        2000   5034.1628      0.28305027   
     49000        2000   4892.6071      0.28051032   
     50000        2000   4731.7482      0.28283297   
     51000        2000   4581.4463      0.28066322   
     52000        2000   4438.1907      0.27023477   
     53000        2000   4281.4787      0.28121195   
     54000        2000   4117.6903      0.26953331   
     55000        2000   3982.376       0.28028439   
     56000        2000   3847.8159      0.27282502   
     57000        2000   3671.3059      0.27381233   
     58000        2000   3453.8057      0.28068131   
     59000        2000   3223.5216      0.27378915   
     60000        2000   3004.3511      0.27640098   
     61000        2000   2783.668       0.28041264   
     62000        2000   2577.3876      0.27970731   
     63000        2000   2339.5731      0.27311235   
     64000        2000   2109.1089      0.27474185   
     65000        2000   1918.4343      0.2797342    
     66000        2000   1652.6432      0.27360231   
     67000        2000   1455.8969      0.27261677   
     68000        2000   1222.7914      0.27649926   
     69000        2000   1042.966       0.26925752   
     70000        2000   851.98802      0.2736282    
     71000        2000   651.39638      0.27229607   
     72000        2000   495.6471       0.26966694   
     73000        2000   373.40727      0.27080967   
     74000        2000   302.99802      0.27038053   
     75000        2000   242.0476       0.26841503   
     76000        2000   193.52937      0.27018523   
     77000        2000   154.35532      0.26929716   
     78000        2000   119.90046      0.26788714   
     79000        2000   97.774064      0.26807842   
     80000        2000   83.674771      0.26831117   
     81000        2000   72.046669      0.26812919   
     82000        2000   64.143727      0.26794557   
     83000        2000   56.232204      0.2683447    
     84000        2000   51.669895      0.26831828   
     85000        2000   47.052328      0.26816286   
     86000        2000   42.829001      0.26821213   
     87000        2000   37.093377      0.26822975   
     88000        2000   32.643767      0.26812995   
     89000        2000   28.257482      0.26827663   
     90000        2000   25.30245       0.26813776   
     91000        2000   22.543079      0.2682337    
     92000        2000   20.321892      0.26818479   
     93000        2000   18.020059      0.26819306   
     94000        2000   16.846813      0.26820792   
     95000        2000   15.761236      0.2681845    
     96000        2000   14.144064      0.26820493   
     97000        2000   12.993774      0.26819224   
     98000        2000   12.266591      0.26819688   
     99000        2000   11.796752      0.26819789   
    100000        2000   11.228219      0.26819418   
    101000        2000   10.940673      0.26819816   
    102000        2000   10.739427      0.26819526   
    103000        2000   10.832573      0.26822449   
    104000        2000   10.865078      0.2681852    
    105000        2000   10.646136      0.26819552   
    106000        2000   10.76657       0.26820404   
    107000        2000   10.328392      0.26818772   
    108000        2000   10.011318      0.26820294   
    109000        2000   9.9186708      0.26819291   
    110000        2000   9.876292       0.26819707   
    111000        2000   9.8878401      0.26819728   
    112000        2000   9.6342632      0.26819481   
    113000        2000   9.3136666      0.2681977    
    114000        2000   8.961882       0.26819548   
    115000        2000   8.6372686      0.26819728   
    116000        2000   8.6001012      0.26818119   
    117000        2000   7.8557944      0.26821603   
    118000        2000   6.973909       0.26818102   
    119000        2000   6.3767497      0.26820503   
    120000        2000   6.1537835      0.26819406   
    121000        2000   6.1554314      0.26819467   
    122000        2000   6.034214       0.26819966   
    123000        2000   5.482085       0.2681932    
    124000        2000   4.8058909      0.26819842   
    125000        2000   4.3347096      0.26819546   
    126000        2000   4.3456417      0.26819631   
    127000        2000   4.2904299      0.26819684   
    128000        2000   4.2089246      0.26819574   
    129000        2000   3.8121119      0.2681968    
    130000        2000   3.4639131      0.26819609   
    131000        2000   3.4947358      0.26819639   
    132000        2000   3.4579578      0.2681964    
    133000        2000   3.527679       0.26819623   
    134000        2000   3.679062       0.26819643   
    135000        2000   3.4816542      0.26819627   
    136000        2000   3.4540433      0.26819636   
    137000        2000   3.4156058      0.26819634   
    138000        2000   3.4963187      0.26819632   
    139000        2000   3.6179678      0.26819635   
    140000        2000   3.4977196      0.26819632   
    141000        2000   3.6259994      0.26819634   
    142000        2000   3.7355648      0.26819633   
    143000        2000   3.7491158      0.26819633   
    144000        2000   3.8340085      0.26819634   
    145000        2000   3.7282405      0.26819633   
    146000        2000   3.8948403      0.26819634   
    147000        2000   3.5863741      0.26819633   
    148000        2000   3.5838386      0.26819634   
    149000        2000   3.7256561      0.26819634   
    150000        2000   3.7280808      0.26819633   
    151000        2000   3.8403392      0.26819634   
    152000        2000   2.8925141      0.26819634   
    153000        2000   2.6156145      0.26820163   
    154000        2000   2.5803482      0.26816603   
    155000        2000   2.6615751      0.26821984   
    156000        2000   2.1925453      0.26818445   
    157000        2000   2.2411158      0.26819902   
    158000        2000   2.2085103      0.26819974   
    159000        2000   2.2412822      0.26819097   
    160000        2000   2.2762318      0.26820118   
    161000        2000   2.3290109      0.2681933    
    162000        2000   2.418455       0.26819749   
    163000        2000   2.4942537      0.26819654   
    164000        2000   2.5455253      0.26819548   
    165000        2000   2.2825582      0.26819727   
    166000        2000   2.2864954      0.26819565   
    167000        2000   1.7094872      0.26819668   
    168000        2000   1.5978299      0.26819628   
    169000        2000   1.4886376      0.26819622   
    170000        2000   1.5154042      0.2681965    
Loop time of 29.5777 on 1 procs for 150000 steps with 2000 atoms

99.8% CPU use with 1 MPI tasks x 1 OpenMP threads

MPI task timing breakdown:
Section |  min time  |  avg time  |  max time  |%varavg| %total
---------------------------------------------------------------
Pair    | 6.6939     | 6.6939     | 6.6939     |   0.0 | 22.63
Neigh   | 0.31273    | 0.31273    | 0.31273    |   0.0 |  1.06
Comm    | 0.0266     | 0.0266     | 0.0266     |   0.0 |  0.09
Output  | 0.0044388  | 0.0044388  | 0.0044388  |   0.0 |  0.02
Modify  | 22.216     | 22.216     | 22.216     |   0.0 | 75.11
Other   |            | 0.3245     |            |       |  1.10

Nlocal:           2000 ave        2000 max        2000 min
Histogram: 1 0 0 0 0 0 0 0 0 0
Nghost:              0 ave           0 max           0 min
Histogram: 1 0 0 0 0 0 0 0 0 0
Neighs:          15425 ave       15425 max       15425 min
Histogram: 1 0 0 0 0 0 0 0 0 0

Total # of neighbors = 15425
Ave neighs/atom = 7.7125
Neighbor list builds = 373
Dangerous builds = 0

# remove "plug" - need to redefine cylinder region & union

region	  	cylreg delete
region		hopreg delete
region	    	cylreg cylinder z ${xc} ${yc} ${radconelo} 		${zcyllo} ${zconelo} side in units box 		open 1 open 2 #Bottom & top are open
region	    	cylreg cylinder z 25 ${yc} ${radconelo} 		${zcyllo} ${zconelo} side in units box 		open 1 open 2 
region	    	cylreg cylinder z 25 25 ${radconelo} 		${zcyllo} ${zconelo} side in units box 		open 1 open 2 
region	    	cylreg cylinder z 25 25 2 		${zcyllo} ${zconelo} side in units box 		open 1 open 2 
region	    	cylreg cylinder z 25 25 2 		0 ${zconelo} side in units box 		open 1 open 2 
region	    	cylreg cylinder z 25 25 2 		0 10 side in units box 		open 1 open 2 

region		hopreg union 2 cylreg conereg

unfix		hopper3
fix		hopper3 all wall/gran/region hertz/history 		${kn} ${kt} ${gamma_n} ${gamma_t} ${coeffFric} 1 region hopreg
fix		hopper3 all wall/gran/region hertz/history 		72592.5925925926 ${kt} ${gamma_n} ${gamma_t} ${coeffFric} 1 region hopreg
fix		hopper3 all wall/gran/region hertz/history 		72592.5925925926 90740.7407407408 ${gamma_n} ${gamma_t} ${coeffFric} 1 region hopreg
fix		hopper3 all wall/gran/region hertz/history 		72592.5925925926 90740.7407407408 903.503751814138 ${gamma_t} ${coeffFric} 1 region hopreg
fix		hopper3 all wall/gran/region hertz/history 		72592.5925925926 90740.7407407408 903.503751814138 451.751875907069 ${coeffFric} 1 region hopreg
fix		hopper3 all wall/gran/region hertz/history 		72592.5925925926 90740.7407407408 903.503751814138 451.751875907069 0.5 1 region hopreg

run		100000
Generated 0 of 0 mixed pair_coeff terms from geometric mixing rule
Per MPI rank memory allocation (min/avg/max) = 12.82 | 12.82 | 12.82 Mbytes
   Step        Atoms         c_ke          v_zmin    
    170000        2000   1.5154042      0.2681965    
    171000        2000   2.433856       0.22515347   
    172000        2000   3.6303955      0.16109213   
    173000        2000   5.2558655      0.085906542  
    174000        2000   7.3922802     -0.00040328088
    175000        2000   10.085053     -0.097837343  
    176000        2000   13.460105     -0.20639564   
    177000        2000   17.783198     -0.32607818   
    178000        2000   23.018191     -0.45688496   
    179000        2000   29.157616     -0.59881598   
    180000        2000   35.73627      -0.75187124   
    181000        2000   43.489085     -0.91605074   
    182000        2000   51.8297       -1.0913545    
    183000        2000   60.217034     -1.2777824    
    184000        2000   69.55896      -1.4768448    
    185000        2000   79.377634     -1.6910472    
    186000        2000   89.817341     -1.9163739    
    187000        2000   101.83153     -2.1528249    
    188000        2000   114.80501     -2.4004       
    189000        2000   129.07021     -2.6590995    
    190000        2000   144.33177     -2.9289231    
    191000        2000   160.1492      -3.209871     
    192000        2000   176.64503     -3.5019431    
    193000        2000   192.77317     -3.8051395    
    194000        2000   210.68763     -4.1194601    
    195000        2000   229.96598     -4.444905     
    196000        2000   250.82929     -4.7814741    
    197000        2000   272.50515     -5.1291674    
    198000        2000   294.93489     -5.4879849    
    199000        2000   318.16339     -5.8579268    
    200000        2000   343.31839     -6.2389928    
    201000        2000   369.65226     -6.6311831    
    202000        2000   397.04267     -7.0344976    
    203000        2000   425.44413     -7.4489364    
    204000        2000   453.62647     -7.8744994    
    205000        2000   484.37807     -8.3111866    
    206000        2000   515.31941     -8.7589981    
    207000        2000   545.85191     -9.2179338    
    208000        2000   576.76612     -9.6879938    
    209000        2000   609.77466     -10.169178    
    210000        2000   644.93286     -10.661486    
    211000        2000   681.49977     -11.164919    
    212000        2000   717.53718     -11.679476    
    213000        2000   754.00511     -12.205157    
    214000        2000   791.52769     -12.741963    
    215000        2000   828.13977     -13.289892    
    216000        2000   866.54447     -13.848946    
    217000        2000   908.30475     -14.419124    
    218000        2000   951.84022     -15.000426    
    219000        2000   997.31012     -15.592853    
    220000        2000   1044.5286     -16.196404    
    221000        2000   1093.3471     -16.811079    
    222000        2000   1143.7679     -17.436878    
    223000        2000   1194.8553     -18.073802    
    224000        2000   1245.1388     -18.72185     
    225000        2000   1296.3479     -19.381022    
    226000        2000   1347.7634     -20.051318    
WARNING: Lost atoms: original 2000 current 1995
For more information see https://docs.lammps.org/err0008 (src/thermo.cpp:532)
    227000        1995   1384.2702     -19.92318     
    228000        1990   1412.7184     -20.078908    
    229000        1980   1408.486      -20.098119    
    230000        1970   1429.9671     -19.989714    
    231000        1958   1403.4606     -20.067001    
    232000        1944   1388.4229     -20.134512    
    233000        1935   1389.2487     -20.042642    
    234000        1925   1391.2998     -20.059558    
    235000        1913   1382.3213     -19.96588     
    236000        1905   1385.6938     -20.009299    
    237000        1898   1386.2311     -20.237405    
    238000        1885   1342.3619     -20.169456    
    239000        1872   1313.0629     -20.183764    
    240000        1856   1258.4319     -19.982344    
    241000        1840   1218.3252     -19.91483     
    242000        1826   1165.9644     -20.012198    
    243000        1809   1103.7422     -20.031774    
    244000        1796   1055.3465     -20.026733    
    245000        1783   1003.0089     -20.094439    
    246000        1767   940.40731     -20.085294    
    247000        1754   894.41492     -20.106673    
    248000        1740   829.21776     -20.179461    
    249000        1720   715.10461     -19.868546    
    250000        1713   681.93317     -19.915615    
    251000        1706   653.76205     -20.052966    
    252000        1701   646.83381     -19.9331      
    253000        1696   628.46822     -20.062471    
    254000        1693   632.29312     -20.013602    
    255000        1688   614.43827     -19.75553     
    256000        1686   619.77217     -19.975772    
    257000        1683   615.24433     -20.007023    
    258000        1679   618.63348     -20.123987    
    259000        1675   619.67541     -20.205524    
    260000        1670   610.6075      -19.90894     
    261000        1669   622.7429      -19.427264    
    262000        1666   627.43512     -20.029779    
    263000        1662   622.86677     -20.233933    
    264000        1657   610.34159     -19.813275    
    265000        1653   597.7676      -19.430451    
    266000        1652   607.42736     -20.005061    
    267000        1648   600.63176     -19.852861    
    268000        1647   616.64522     -20.1209      
    269000        1643   613.1681      -19.762633    
    270000        1640   599.9319      -19.860534    
Loop time of 19.6057 on 1 procs for 100000 steps with 1640 atoms

99.9% CPU use with 1 MPI tasks x 1 OpenMP threads

MPI task timing breakdown:
Section |  min time  |  avg time  |  max time  |%varavg| %total
---------------------------------------------------------------
Pair    | 4.7974     | 4.7974     | 4.7974     |   0.0 | 24.47
Neigh   | 0.22857    | 0.22857    | 0.22857    |   0.0 |  1.17
Comm    | 0.018962   | 0.018962   | 0.018962   |   0.0 |  0.10
Output  | 0.0029273  | 0.0029273  | 0.0029273  |   0.0 |  0.01
Modify  | 14.346     | 14.346     | 14.346     |   0.0 | 73.17
Other   |            | 0.2114     |            |       |  1.08

Nlocal:           1640 ave        1640 max        1640 min
Histogram: 1 0 0 0 0 0 0 0 0 0
Nghost:              0 ave           0 max           0 min
Histogram: 1 0 0 0 0 0 0 0 0 0
Neighs:          11509 ave       11509 max       11509 min
Histogram: 1 0 0 0 0 0 0 0 0 0

Total # of neighbors = 11509
Ave neighs/atom = 7.0176829
Neighbor list builds = 237
Dangerous builds = 0
Total wall time: 0:00:52
